282 5
10 10 10 10 10 

0 0 0 0 0 0 2 2 14 
0 0 0 0 0 0 6 3 4 5 6 7 8 
1 0 0 0 0 4 3 10 9 232 
1 0 0 0 0 10 2 10 9 
7 0 0 0 0 10 2 10 9 
1 0 0 0 0 8 2 10 9 
5 0 0 0 0 6 2 10 9 
6 0 0 0 0 7 1 9 
3 0 0 0 0 10 2 12 11 
8 0 0 0 0 9 2 12 11 
3 0 0 0 0 5 1 13 
9 0 0 0 0 6 1 13 
0 0 0 0 0 0 2 36 48 
0 0 0 0 0 0 7 15 18 21 22 32 33 34 
1 0 2 0 0 5 4 31 30 25 16 
7 0 7 0 0 4 3 29 28 17 
10 0 7 0 0 4 3 26 23 19 
4 0 7 0 0 9 2 23 20 
1 0 9 0 0 7 1 24 
6 0 10 0 0 8 1 25 
10 0 10 0 0 8 1 27 
9 0 10 0 0 9 2 27 37 
4 0 10 0 0 4 1 35 
6 0 6 0 0 10 1 35 
3 0 5 0 0 10 1 35 
10 0 10 0 0 6 1 35 
2 0 8 0 0 10 1 35 
7 0 5 0 0 7 1 35 
2 0 8 0 0 10 1 35 
10 0 7 0 0 9 1 35 
5 0 6 0 0 6 1 35 
8 0 7 0 0 8 1 35 
5 0 10 0 0 10 1 35 
6 0 6 0 0 6 1 35 
0 0 0 0 0 0 1 60 
0 0 0 0 0 0 5 37 38 39 40 46 
2 0 2 0 0 0 4 45 44 43 42 
5 0 7 0 0 0 4 44 43 41 54 
5 0 10 0 0 0 3 44 43 41 
2 0 8 0 0 0 2 43 42 
9 0 4 0 0 0 1 42 
3 0 5 0 0 0 1 47 
9 0 10 0 0 0 1 47 
4 0 10 0 0 0 1 47 
7 0 10 0 0 0 1 47 
6 0 9 0 0 0 1 47 
0 0 0 0 0 0 1 60 
0 0 0 0 0 0 7 49 51 54 55 56 57 58 
3 0 0 0 0 6 1 50 
7 0 0 0 0 5 2 52 230 
8 0 0 0 0 5 1 53 
3 0 0 0 0 9 1 59 
1 0 0 0 0 10 1 59 
8 0 0 0 0 10 1 59 
3 0 0 0 0 10 1 59 
1 0 0 0 0 3 1 59 
1 0 0 0 0 10 1 59 
5 0 0 0 0 7 1 59 
0 0 0 0 0 0 1 60 
0 0 0 0 0 0 5 61 73 85 97 109 
0 0 0 0 0 0 6 62 63 64 65 66 71 
5 0 0 0 2 0 3 70 69 67 
7 0 0 0 7 0 2 69 67 
7 0 0 0 7 0 1 67 
8 0 0 0 10 0 1 67 
7 0 0 0 6 0 1 67 
4 0 0 0 10 0 1 68 
1 0 0 0 7 0 1 72 
10 0 0 0 7 0 1 72 
1 0 0 0 10 0 2 72 237 
1 0 0 0 9 0 1 72 
0 0 0 0 0 0 1 121 
0 0 0 0 0 0 5 74 75 77 82 83 
7 5 0 0 0 0 2 78 76 
8 6 0 0 0 0 3 81 80 78 
9 6 0 0 0 0 3 81 80 79 
10 9 0 0 0 0 2 80 78 
3 7 0 0 0 0 1 79 
5 7 0 0 0 0 1 84 
3 5 0 0 0 0 2 84 260 
8 10 0 0 0 0 1 84 
4 10 0 0 0 0 1 84 
2 10 0 0 0 0 1 84 
0 0 0 0 0 0 1 121 
0 0 0 0 0 0 3 86 88 89 
7 0 2 0 0 0 4 94 90 87 263 
5 0 6 0 0 0 4 95 93 92 91 
5 0 8 0 0 0 4 94 93 92 91 
2 0 8 0 0 0 4 94 93 92 91 
3 0 8 0 0 0 2 92 91 
5 0 6 0 0 0 1 96 
2 0 9 0 0 0 1 96 
1 0 10 0 0 0 1 96 
10 0 8 0 0 0 1 96 
9 0 10 0 0 0 1 96 
0 0 0 0 0 0 1 121 
0 0 0 0 0 0 6 98 99 100 102 107 260 
9 0 0 0 0 1 3 105 103 101 
5 0 0 0 0 10 3 106 105 103 
4 0 0 0 0 9 1 101 
1 0 0 0 0 6 1 104 
10 0 0 0 0 10 1 103 
10 0 0 0 0 10 1 108 
4 0 0 0 0 4 1 108 
7 0 0 0 0 10 1 108 
3 0 0 0 0 5 1 108 
10 0 0 0 0 10 1 108 
0 0 0 0 0 0 1 121 
0 0 0 0 0 0 5 110 111 113 114 115 
7 0 0 0 0 3 3 119 116 227 
7 0 0 0 0 9 1 112 
9 0 0 0 0 8 1 116 
7 0 0 0 0 8 1 118 
3 0 0 0 0 4 1 117 
3 0 0 0 0 8 1 117 
5 0 0 0 0 10 1 120 
5 0 0 0 0 6 1 120 
2 0 0 0 0 9 1 120 
10 0 0 0 0 10 1 120 
0 0 0 0 0 0 1 121 
0 0 0 0 0 0 5 122 134 156 178 200 
0 0 0 0 0 0 3 123 125 126 
7 2 0 0 0 0 3 132 131 124 
1 10 0 0 0 0 3 130 128 127 
1 6 0 0 0 0 3 129 128 127 
7 4 0 0 0 0 1 129 
5 9 0 0 0 0 1 133 
9 10 0 0 0 0 2 133 137 
7 10 0 0 0 0 1 133 
2 5 0 0 0 0 1 133 
3 10 0 0 0 0 1 133 
8 9 0 0 0 0 1 133 
0 0 0 0 0 0 5 222 234 246 258 270 
0 0 0 0 0 0 8 135 136 137 138 139 140 141 144 
9 0 1 4 0 0 3 147 145 143 
9 0 10 10 0 0 3 147 143 142 
2 0 6 4 0 0 2 147 142 
1 0 7 7 0 0 2 147 142 
8 0 9 9 0 0 2 147 142 
5 0 4 5 0 0 2 147 146 
2 0 9 5 0 0 2 147 146 
2 0 9 3 0 0 2 149 146 
8 0 10 9 0 0 2 152 146 
9 0 6 7 0 0 2 152 146 
10 0 5 8 0 0 3 154 152 148 
1 0 10 10 0 0 2 154 148 
6 0 9 5 0 0 2 151 149 
1 0 9 10 0 0 3 153 151 150 
2 0 5 10 0 0 2 152 150 
10 0 9 10 0 0 1 155 
6 0 5 7 0 0 2 155 235 
8 0 9 9 0 0 1 155 
6 0 10 8 0 0 1 155 
7 0 8 10 0 0 1 155 
0 0 0 0 0 0 1 282 
0 0 0 0 0 0 8 157 158 160 161 162 174 175 176 
6 0 0 0 1 4 3 171 165 159 
1 0 0 0 8 10 7 173 171 170 169 168 165 164 
7 0 0 0 3 4 3 168 167 163 
4 0 0 0 5 10 4 171 170 167 164 
4 0 0 0 10 6 3 172 170 165 
7 0 0 0 9 7 3 168 167 165 
2 0 0 0 10 9 2 169 164 
1 0 0 0 9 10 1 166 
1 0 0 0 9 9 1 166 
6 0 0 0 8 4 1 177 
2 0 0 0 5 7 1 177 
4 0 0 0 10 6 1 177 
8 0 0 0 10 9 1 177 
7 0 0 0 5 8 1 177 
1 0 0 0 9 8 1 177 
7 0 0 0 10 10 1 177 
6 0 0 0 6 3 1 177 
10 0 0 0 10 9 2 177 219 
8 0 0 0 4 8 1 177 
5 0 0 0 9 9 1 177 
0 0 0 0 0 0 1 282 
0 0 0 0 0 0 5 179 180 181 182 186 
4 4 6 0 0 0 4 190 189 187 183 
8 6 5 0 0 0 4 198 189 187 184 
6 6 7 0 0 0 3 190 187 183 
1 4 9 0 0 0 5 197 190 189 187 185 
1 10 2 0 0 0 3 198 197 185 
3 5 8 0 0 0 2 197 185 
9 10 9 0 0 0 4 195 192 191 188 
3 9 6 0 0 0 5 198 197 194 189 220 
7 10 5 0 0 0 3 195 191 188 
7 10 4 0 0 0 2 196 194 
5 10 10 0 0 0 2 195 193 
5 9 8 0 0 0 2 194 193 
4 4 5 0 0 0 1 193 
2 10 10 0 0 0 1 193 
10 5 10 0 0 0 1 199 
1 10 10 0 0 0 1 199 
2 7 10 0 0 0 1 199 
3 7 7 0 0 0 1 199 
8 4 10 0 0 0 1 199 
7 10 9 0 0 0 1 199 
0 0 0 0 0 0 1 282 
0 0 0 0 0 0 7 201 202 203 205 206 219 220 
5 5 2 0 0 0 4 218 215 209 204 
6 5 10 0 0 0 8 217 215 214 213 212 211 209 208 
10 10 7 0 0 0 5 215 214 212 211 208 
6 8 10 0 0 0 2 212 207 
3 5 9 0 0 0 4 216 214 209 208 
3 10 5 0 0 0 4 212 211 209 208 
3 6 10 0 0 0 3 213 211 208 
7 7 10 0 0 0 1 210 
7 6 5 0 0 0 1 210 
2 7 5 0 0 0 1 221 
2 10 6 0 0 0 1 221 
5 9 10 0 0 0 1 221 
7 7 9 0 0 0 1 221 
9 4 3 0 0 0 1 221 
1 10 7 0 0 0 1 221 
6 10 10 0 0 0 1 221 
4 8 6 0 0 0 1 221 
4 7 9 0 0 0 1 221 
5 10 7 0 0 0 1 221 
3 6 10 0 0 0 1 221 
0 0 0 0 0 0 1 282 
0 0 0 0 0 0 5 223 224 225 227 228 
8 0 0 5 0 0 2 232 226 
7 0 0 6 0 0 4 232 231 230 229 
9 0 0 4 0 0 4 232 231 230 229 
2 0 0 4 0 0 3 231 230 229 
9 0 0 9 0 0 3 231 230 229 
1 0 0 9 0 0 2 230 229 
6 0 0 9 0 0 1 233 
7 0 0 10 0 0 1 233 
2 0 0 9 0 0 1 233 
9 0 0 10 0 0 1 233 
0 0 0 0 0 0 1 282 
0 0 0 0 0 0 6 235 236 237 239 240 241 
2 0 4 0 0 0 3 244 243 242 
4 0 10 0 0 0 2 242 238 
9 0 4 0 0 0 2 244 242 
6 0 10 0 0 0 1 243 
5 0 6 0 0 0 1 243 
3 0 6 0 0 0 1 242 
7 0 10 0 0 0 1 242 
2 0 7 0 0 0 1 245 
7 0 8 0 0 0 1 245 
6 0 10 0 0 0 1 245 
0 0 0 0 0 0 1 282 
0 0 0 0 0 0 5 247 250 251 252 256 
1 4 0 0 0 0 3 255 249 248 
1 7 0 0 0 0 2 254 253 
3 5 0 0 0 0 1 253 
5 10 0 0 0 0 1 253 
8 9 0 0 0 0 1 253 
10 9 0 0 0 0 1 253 
5 6 0 0 0 0 1 257 
6 10 0 0 0 0 1 257 
6 5 0 0 0 0 1 257 
8 10 0 0 0 0 1 257 
0 0 0 0 0 0 1 282 
0 0 0 0 0 0 5 259 261 262 263 268 
6 0 0 2 0 0 3 267 264 260 
2 0 0 10 0 0 2 266 265 
10 0 0 10 0 0 1 265 
5 0 0 9 0 0 1 264 
5 0 0 4 0 0 1 264 
9 0 0 8 0 0 1 269 
4 0 0 6 0 0 1 269 
3 0 0 7 0 0 1 269 
9 0 0 10 0 0 1 269 
6 0 0 9 0 0 1 269 
0 0 0 0 0 0 1 282 
0 0 0 0 0 0 5 271 272 273 274 275 
10 0 4 0 0 0 3 280 277 276 
7 0 9 0 0 0 3 280 279 278 
3 0 2 0 0 0 2 279 276 
4 0 10 0 0 0 2 279 278 
9 0 7 0 0 0 2 279 278 
8 0 10 0 0 0 1 278 
2 0 7 0 0 0 1 278 
3 0 9 0 0 0 1 281 
10 0 8 0 0 0 1 281 
2 0 9 0 0 0 1 281 
0 0 0 0 0 0 1 282 
0 0 0 0 0 0 0 
